myproject/instances/20nodes/rnd10_20.tsp
NAME : rnd10_20.tsp
TYPE : TSP
DIMENSION : 20
EDGE_WEIGHT_TYPE : EUC_2D
NODE_COORD_SECTION
1 210 689
2 781 554
3 432 646
4 804 69
5 192 259
6 806 536
7 720 132
8 166 463
9 698 319
10 331 972
11 849 70
12 138 334
13 224 320
14 137 418
15 494 983
16 431 82
17 140 988
18 149 770
19 189 694
20 341 980
