myproject/instances/20nodes/rnd10_20.opt.tour
NAME : rnd10_20.tsp.tsp.opt.tour
TYPE : TOUR
DIMENSION : 20
TOUR_SECTION
1
9
20
7
5
6
11
15
16
18
17
14
8
4
2
3
10
13
19
12
-1